g3 1 1 0 # unnamed problem generated by COEK
 4 0 1 0 0 0 # vars, constraints, objectives, ranges, eqns, lcons
 0 1 # nonlinear constraints, objectives
 0 0 # network constraints: nonlinear, linear
 0 4 0 # nonlinear vars in constraints, objectives, both
 0 0 0 1 # linear network variables; functions; arith, flags
 0 0 0 0 0 # discrete variables: binary, integer, nonlinear (b,c,o)
 0 4 # nonzeros in Jacobian, gradients
 0 0 # max name lengths: constraints, variables
 0 0 0 0 0 # common exprs: b,c,o,c1,o1
O0 0
o54
31
o5
o0
n78.59621799999999
o16
o0
o2
n3.200388615369
v0
o3
v1
o0
v2
o3
n3.200388615369
v3
n2
o5
o0
n65.77963
o16
o0
o2
n3.046173318241
v0
o3
v1
o0
v2
o3
n3.046173318241
v3
n2
o5
o0
n43.96947
o16
o0
o2
n2.749172911969
v0
o3
v1
o0
v2
o3
n2.749172911969
v3
n2
o5
o0
n27.038816
o16
o0
o2
n2.467400073616
v0
o3
v1
o0
v2
o3
n2.467400073616
v3
n2
o5
o0
n14.6126
o16
o0
o2
n2.2008612609
v0
o3
v1
o0
v2
o3
n2.2008612609
v3
n2
o5
o0
n6.2614
o16
o0
o2
n1.949550365169
v0
o3
v1
o0
v2
o3
n1.949550365169
v3
n2
o5
o0
n1.53833
o16
o0
o2
n1.713473146009
v0
o3
v1
o0
v2
o3
n1.713473146009
v3
n2
o5
o16
o0
o2
n1.485015206544
v0
o3
v1
o0
v2
o3
n1.485015206544
v3
n2
o5
o0
n1.188045
o16
o0
o2
n1.287008567296
v0
o3
v1
o0
v2
o3
n1.287008567296
v3
n2
o5
o0
n4.6841
o16
o0
o2
n1.096623651204
v0
o3
v1
o0
v2
o3
n1.096623651204
v3
n2
o5
o0
n16.9321
o16
o0
o2
n0.7615442022250001
v0
o3
v1
o0
v2
o3
n0.7615442022250001
v3
n2
o5
o0
n33.6988
o16
o0
o2
n0.487388289424
v0
o3
v1
o0
v2
o3
n0.487388289424
v3
n2
o5
o0
n52.3664
o16
o0
o2
n0.274155912801
v0
o3
v1
o0
v2
o3
n0.274155912801
v3
n2
o5
o0
n70.163
o16
o0
o2
n0.121847072356
v0
o3
v1
o0
v2
o3
n0.121847072356
v3
n2
o5
o0
n83.4221
o16
o0
o2
n0.030461768089
v0
o3
v1
o0
v2
o3
n0.030461768089
v3
n2
o5
o0
n88.3995
o16
o0
n0
o3
v1
o0
v2
n0
n2
o5
o0
n78.59621799999999
o16
o0
o2
n3.200388615369
v0
o3
v1
o0
v2
o3
n3.200388615369
v3
n2
o5
o0
n65.77963
o16
o0
o2
n3.046173318241
v0
o3
v1
o0
v2
o3
n3.046173318241
v3
n2
o5
o0
n43.96947
o16
o0
o2
n2.749172911969
v0
o3
v1
o0
v2
o3
n2.749172911969
v3
n2
o5
o0
n27.038816
o16
o0
o2
n2.467400073616
v0
o3
v1
o0
v2
o3
n2.467400073616
v3
n2
o5
o0
n14.6126
o16
o0
o2
n2.2008612609
v0
o3
v1
o0
v2
o3
n2.2008612609
v3
n2
o5
o0
n6.2614
o16
o0
o2
n1.949550365169
v0
o3
v1
o0
v2
o3
n1.949550365169
v3
n2
o5
o0
n1.53833
o16
o0
o2
n1.713473146009
v0
o3
v1
o0
v2
o3
n1.713473146009
v3
n2
o5
o16
o0
o2
n1.485015206544
v0
o3
v1
o0
v2
o3
n1.485015206544
v3
n2
o5
o0
n1.188045
o16
o0
o2
n1.287008567296
v0
o3
v1
o0
v2
o3
n1.287008567296
v3
n2
o5
o0
n4.6841
o16
o0
o2
n1.096623651204
v0
o3
v1
o0
v2
o3
n1.096623651204
v3
n2
o5
o0
n16.9321
o16
o0
o2
n0.7615442022250001
v0
o3
v1
o0
v2
o3
n0.7615442022250001
v3
n2
o5
o0
n33.6988
o16
o0
o2
n0.487388289424
v0
o3
v1
o0
v2
o3
n0.487388289424
v3
n2
o5
o0
n52.3664
o16
o0
o2
n0.274155912801
v0
o3
v1
o0
v2
o3
n0.274155912801
v3
n2
o5
o0
n70.163
o16
o0
o2
n0.121847072356
v0
o3
v1
o0
v2
o3
n0.121847072356
v3
n2
o5
o0
n83.4221
o16
o0
o2
n0.030461768089
v0
o3
v1
o0
v2
o3
n0.030461768089
v3
n2
x4
0 1
1 1
2 1
3 1
b
3
2 1e-05
2 1e-05
2 1e-05
k3
0
0
0
G0 4
0 0
1 0
2 0
3 0
